submitit INFO (2023-05-02 16:46:16,325) - Starting with JobEnvironment(job_id=27702, hostname=cpunode24, local_rank=0(5), node=0(1), global_rank=0(5))
submitit INFO (2023-05-02 16:46:16,325) - Loading pickle: /h/30/pashootan/Matrix-Mult-CP/src/../logs/4/2x2x2_7_May02_16:46:14/27702_submitted.pkl
 ! --------------------------------------------------- CP Optimizer 22.1.1.0 --
 ! Satisfiability problem - 84 variables, 64 constraints
 ! TimeLimit            = 7200
 ! Workers              = 8
 ! LogPeriod            = 10000000
 ! RandomSeed           = 2893
 ! Initial process time : 0.00s (0.00s extraction + 0.00s propagation)
 !  . Log search space  : 133.1 (before), 133.1 (after)
 !  . Memory usage      : 495.8 kB (before), 495.8 kB (after)
 ! Using parallel search with 8 workers.
 ! ----------------------------------------------------------------------------
 !               Branches  Non-fixed    W       Branch decision
 *                  67147  0.62s        5        -1  = V2_2
 ! ----------------------------------------------------------------------------
 ! Search completed, 1 solution found.
 ! ----------------------------------------------------------------------------
 ! Number of branches     : 532963
 ! Number of fails        : 246781
 ! Total memory usage     : 9.1 MB (9.1 MB CP Optimizer + 0.0 MB Concert)
 ! Time spent in solve    : 0.63s (0.63s engine + 0.00s extraction)
 ! Search speed (br. / s) : 845973.0
 ! ----------------------------------------------------------------------------
Feasible
Model is valid
Saving solution to: /h/30/pashootan/Matrix-Mult-CP/logs/4/2x2x2_7_May02_16:46:14/27702_0_solution.txt
Saving stats to: /h/30/pashootan/Matrix-Mult-CP/logs/4/2x2x2_7_May02_16:46:14/27702_0_stats.csv
submitit INFO (2023-05-02 16:46:17,525) - Job completed successfully
